% File represents an instance of a Composite Structure problem to be solved by a CP framework
% Created on 2025-03-26 10:41:43.067
T = 50;
n = 25;
m = 40;
edges = [(1, 2),
(6, 7),
(11, 12),
(16, 17),
(22, 21),
(2, 3),
(7, 8),
(13, 12),
(17, 18),
(22, 23),
(4, 3),
(9, 8),
(13, 14),
(18, 19),
(23, 24),
(5, 4),
(9, 10),
(14, 15),
(19, 20),
(24, 25),
(1, 6),
(6, 11),
(16, 11),
(16, 21),
(2, 7),
(7, 12),
(17, 12),
(22, 17),
(8, 3),
(13, 8),
(13, 18),
(23, 18),
(9, 4),
(9, 14),
(14, 19),
(24, 19),
(5, 10),
(10, 15),
(15, 20),
(25, 20)];
counts = [|16, 8, 16, 10,
|14, 6, 14, 10,
|14, 4, 14, 6,
|14, 4, 14, 8,
|14, 4, 14, 10,
|16, 6, 16, 8,
|14, 6, 14, 8,
|14, 6, 14, 6,
|14, 6, 14, 8,
|14, 4, 14, 8,
|16, 6, 16, 6,
|14, 4, 14, 6,
|14, 6, 14, 8,
|14, 4, 14, 4,
|14, 2, 14, 4,
|16, 6, 16, 8,
|16, 4, 16, 8,
|14, 4, 14, 6,
|14, 4, 14, 2,
|14, 2, 14, 2,
|16, 2, 16, 8,
|16, 8, 16, 8,
|16, 6, 16, 6,
|14, 4, 14, 6,
|14, 2, 14, 4|];
